32      4       
11      12      12      18      
0       0       0       0       0       3       2       3       4       
9       0       1       5       0       3       8       10      11      
7       9       10      0       0       2       12      28      
10      4       4       0       2       1       5       
7       4       3       0       0       1       6       
9       0       2       6       1       3       7       9       16      
1       0       0       6       0       2       8       27      
3       0       0       4       0       1       17      
10      0       0       8       0       1       18      
3       0       8       1       9       3       20      21      28      
10      0       0       0       10      3       21      25      27      
5       5       2       0       9       2       13      14      
4       0       9       0       0       1       15      
4       4       2       6       0       1       15      
5       4       0       0       0       2       22      29      
10      0       0       1       0       1       19      
7       7       6       7       10      2       20      26      
6       0       3       6       0       1       22      
6       0       0       2       7       1       24      
7       0       6       2       8       1       30      
10      0       10      0       0       1       23      
4       5       0       2       0       1       23      
8       0       5       0       0       1       31      
1       5       5       9       2       2       27      29      
7       9       0       4       3       1       29      
1       0       0       3       2       1       30      
6       0       0       2       6       2       28      30      
7       0       0       9       0       1       31      
4       8       9       0       0       1       32      
1       0       0       0       4       1       32      
8       10      7       0       4       1       32      
0       0       0       0       0       0       